NAME /Users/henri/Research/solvers/instances/idol-instances/robust/collection/cbp_Subramanyam_et_al_2020/CapBud_N25_18/models/uncertain_technology_matrix/
ROWS
 N  OBJ
 L  capacity
 L  c_4895
 L  c_4896
 L  c_4897
 L  c_4898
 L  c_4899
 L  c_4900
 L  c_4901
 L  c_4902
 L  c_4903
 L  c_4904
 L  c_4905
 L  c_4906
 L  c_4907
 L  c_4908
 L  c_4909
 L  c_4910
 L  c_4911
 L  c_4912
 L  c_4913
 L  c_4914
 L  c_4915
 L  c_4916
 L  c_4917
 L  c_4918
 L  c_4919
COLUMNS
    MARKER    'MARKER'                 'INTORG'
    x_0        OBJ        -7.88705
    x_0        c_4895     1
    x_0        capacity   1.57741
    x_1        OBJ        -7.76941
    x_1        c_4896     1
    x_1        capacity   1.55388
    x_2        OBJ        -2.44985
    x_2        c_4897     1
    x_2        capacity   0.489969
    x_3        OBJ        -7.56684
    x_3        c_4898     1
    x_3        capacity   1.51337
    x_4        OBJ        -3.40294
    x_4        c_4899     1
    x_4        capacity   0.680588
    x_5        OBJ        -6.41066
    x_5        c_4900     1
    x_5        capacity   1.28213
    x_6        OBJ        -5.56386
    x_6        c_4901     1
    x_6        capacity   1.11277
    x_7        OBJ        -5.51295
    x_7        c_4902     1
    x_7        capacity   1.10259
    x_8        OBJ        -1.94047
    x_8        c_4903     1
    x_8        capacity   0.388095
    x_9        OBJ        -1.62287
    x_9        c_4904     1
    x_9        capacity   0.324573
    x_10       OBJ        -4.83742
    x_10       c_4905     1
    x_10       capacity   0.967484
    x_11       OBJ        -8.90289
    x_11       c_4906     1
    x_11       capacity   1.78058
    x_12       OBJ        -0.480398
    x_12       c_4907     1
    x_12       capacity   0.0960796
    x_13       OBJ        -5.64103
    x_13       c_4908     1
    x_13       capacity   1.12821
    x_14       OBJ        -0.377726
    x_14       c_4909     1
    x_14       capacity   0.0755452
    x_15       OBJ        -1.48549
    x_15       c_4910     1
    x_15       capacity   0.297099
    x_16       OBJ        -1.73485
    x_16       c_4911     1
    x_16       capacity   0.34697
    x_17       OBJ        -5.01564
    x_17       c_4912     1
    x_17       capacity   1.00313
    x_18       OBJ        -9.58847
    x_18       c_4913     1
    x_18       capacity   1.91769
    x_19       OBJ        -5.7731
    x_19       c_4914     1
    x_19       capacity   1.15462
    x_20       OBJ        -9.48018
    x_20       c_4915     1
    x_20       capacity   1.89604
    x_21       OBJ        -2.02886
    x_21       c_4916     1
    x_21       capacity   0.405771
    x_22       OBJ        -2.32807
    x_22       c_4917     1
    x_22       capacity   0.465614
    x_23       OBJ        -4.32225
    x_23       c_4918     1
    x_23       capacity   0.86445
    x_24       OBJ        -3.67385
    x_24       c_4919     1
    x_24       capacity   0.734771
    y_0        OBJ        -6.30964
    y_0        c_4895     1
    y_0        capacity   1.57741
    y_1        OBJ        -6.21553
    y_1        c_4896     1
    y_1        capacity   1.55388
    y_2        OBJ        -1.95988
    y_2        c_4897     1
    y_2        capacity   0.489969
    y_3        OBJ        -6.05348
    y_3        c_4898     1
    y_3        capacity   1.51337
    y_4        OBJ        -2.72235
    y_4        c_4899     1
    y_4        capacity   0.680588
    y_5        OBJ        -5.12853
    y_5        c_4900     1
    y_5        capacity   1.28213
    y_6        OBJ        -4.45109
    y_6        c_4901     1
    y_6        capacity   1.11277
    y_7        OBJ        -4.41036
    y_7        c_4902     1
    y_7        capacity   1.10259
    y_8        OBJ        -1.55238
    y_8        c_4903     1
    y_8        capacity   0.388095
    y_9        OBJ        -1.29829
    y_9        c_4904     1
    y_9        capacity   0.324573
    y_10       OBJ        -3.86993
    y_10       c_4905     1
    y_10       capacity   0.967484
    y_11       OBJ        -7.12231
    y_11       c_4906     1
    y_11       capacity   1.78058
    y_12       OBJ        -0.384318
    y_12       c_4907     1
    y_12       capacity   0.0960796
    y_13       OBJ        -4.51283
    y_13       c_4908     1
    y_13       capacity   1.12821
    y_14       OBJ        -0.302181
    y_14       c_4909     1
    y_14       capacity   0.0755452
    y_15       OBJ        -1.1884
    y_15       c_4910     1
    y_15       capacity   0.297099
    y_16       OBJ        -1.38788
    y_16       c_4911     1
    y_16       capacity   0.34697
    y_17       OBJ        -4.01251
    y_17       c_4912     1
    y_17       capacity   1.00313
    y_18       OBJ        -7.67078
    y_18       c_4913     1
    y_18       capacity   1.91769
    y_19       OBJ        -4.61848
    y_19       c_4914     1
    y_19       capacity   1.15462
    y_20       OBJ        -7.58414
    y_20       c_4915     1
    y_20       capacity   1.89604
    y_21       OBJ        -1.62309
    y_21       c_4916     1
    y_21       capacity   0.405771
    y_22       OBJ        -1.86246
    y_22       c_4917     1
    y_22       capacity   0.465614
    y_23       OBJ        -3.4578
    y_23       c_4918     1
    y_23       capacity   0.86445
    y_24       OBJ        -2.93908
    y_24       c_4919     1
    y_24       capacity   0.734771
    MARKER    'MARKER'                 'INTEND'
RHS
    RHS       capacity   57.8986
    RHS       c_4895     1
    RHS       c_4896     1
    RHS       c_4897     1
    RHS       c_4898     1
    RHS       c_4899     1
    RHS       c_4900     1
    RHS       c_4901     1
    RHS       c_4902     1
    RHS       c_4903     1
    RHS       c_4904     1
    RHS       c_4905     1
    RHS       c_4906     1
    RHS       c_4907     1
    RHS       c_4908     1
    RHS       c_4909     1
    RHS       c_4910     1
    RHS       c_4911     1
    RHS       c_4912     1
    RHS       c_4913     1
    RHS       c_4914     1
    RHS       c_4915     1
    RHS       c_4916     1
    RHS       c_4917     1
    RHS       c_4918     1
    RHS       c_4919     1
BOUNDS
 LI BND       x_0        0
 UI BND       x_0        1
 LI BND       x_1        0
 UI BND       x_1        1
 LI BND       x_2        0
 UI BND       x_2        1
 LI BND       x_3        0
 UI BND       x_3        1
 LI BND       x_4        0
 UI BND       x_4        1
 LI BND       x_5        0
 UI BND       x_5        1
 LI BND       x_6        0
 UI BND       x_6        1
 LI BND       x_7        0
 UI BND       x_7        1
 LI BND       x_8        0
 UI BND       x_8        1
 LI BND       x_9        0
 UI BND       x_9        1
 LI BND       x_10       0
 UI BND       x_10       1
 LI BND       x_11       0
 UI BND       x_11       1
 LI BND       x_12       0
 UI BND       x_12       1
 LI BND       x_13       0
 UI BND       x_13       1
 LI BND       x_14       0
 UI BND       x_14       1
 LI BND       x_15       0
 UI BND       x_15       1
 LI BND       x_16       0
 UI BND       x_16       1
 LI BND       x_17       0
 UI BND       x_17       1
 LI BND       x_18       0
 UI BND       x_18       1
 LI BND       x_19       0
 UI BND       x_19       1
 LI BND       x_20       0
 UI BND       x_20       1
 LI BND       x_21       0
 UI BND       x_21       1
 LI BND       x_22       0
 UI BND       x_22       1
 LI BND       x_23       0
 UI BND       x_23       1
 LI BND       x_24       0
 UI BND       x_24       1
 LI BND       y_0        0
 UI BND       y_0        1
 LI BND       y_1        0
 UI BND       y_1        1
 LI BND       y_2        0
 UI BND       y_2        1
 LI BND       y_3        0
 UI BND       y_3        1
 LI BND       y_4        0
 UI BND       y_4        1
 LI BND       y_5        0
 UI BND       y_5        1
 LI BND       y_6        0
 UI BND       y_6        1
 LI BND       y_7        0
 UI BND       y_7        1
 LI BND       y_8        0
 UI BND       y_8        1
 LI BND       y_9        0
 UI BND       y_9        1
 LI BND       y_10       0
 UI BND       y_10       1
 LI BND       y_11       0
 UI BND       y_11       1
 LI BND       y_12       0
 UI BND       y_12       1
 LI BND       y_13       0
 UI BND       y_13       1
 LI BND       y_14       0
 UI BND       y_14       1
 LI BND       y_15       0
 UI BND       y_15       1
 LI BND       y_16       0
 UI BND       y_16       1
 LI BND       y_17       0
 UI BND       y_17       1
 LI BND       y_18       0
 UI BND       y_18       1
 LI BND       y_19       0
 UI BND       y_19       1
 LI BND       y_20       0
 UI BND       y_20       1
 LI BND       y_21       0
 UI BND       y_21       1
 LI BND       y_22       0
 UI BND       y_22       1
 LI BND       y_23       0
 UI BND       y_23       1
 LI BND       y_24       0
 UI BND       y_24       1
ENDATA
